244 5
10 10 10 10 10 

0 0 0 0 0 0 5 2 14 26 38 50 
0 0 0 0 0 0 5 3 4 5 9 12 
6 0 0 0 5 0 3 8 7 6 
2 0 0 0 5 0 2 7 6 
1 0 0 0 10 0 2 10 7 
1 0 0 0 7 0 2 11 10 
1 0 0 0 6 0 2 11 77 
6 0 0 0 10 0 1 10 
7 0 0 0 9 0 1 10 
10 0 0 0 7 0 1 13 
2 0 0 0 8 0 1 13 
6 0 0 0 8 0 1 13 
0 0 0 0 0 0 1 62 
0 0 0 0 0 0 4 15 17 18 24 
1 0 0 1 0 0 3 23 21 16 
7 0 0 10 0 0 3 22 20 19 
3 0 0 7 0 0 2 20 19 
3 0 0 9 0 0 1 21 
6 0 0 10 0 0 2 25 176 
7 0 0 10 0 0 1 25 
9 0 0 5 0 0 1 25 
2 0 0 6 0 0 1 25 
10 0 0 10 0 0 1 25 
6 0 0 7 0 0 1 25 
0 0 0 0 0 0 1 62 
0 0 0 0 0 0 6 27 28 29 30 32 36 
2 0 0 6 0 0 3 35 34 31 
7 0 0 7 0 0 2 34 31 
1 0 0 6 0 0 2 34 31 
10 0 0 10 0 0 2 31 139 
3 0 0 7 0 0 1 33 
7 0 0 5 0 0 1 35 
10 0 0 10 0 0 1 37 
8 0 0 8 0 0 1 37 
6 0 0 9 0 0 1 37 
1 0 0 7 0 0 1 37 
0 0 0 0 0 0 1 62 
0 0 0 0 0 0 7 39 41 42 43 46 47 48 
6 0 0 8 0 0 2 45 40 
4 0 0 4 0 0 1 44 
10 0 0 7 0 0 1 45 
2 0 0 5 0 0 2 44 79 
7 0 0 10 0 0 1 44 
5 0 0 6 0 0 1 49 
5 0 0 6 0 0 1 49 
5 0 0 9 0 0 1 49 
5 0 0 10 0 0 1 49 
1 0 0 10 0 0 1 49 
0 0 0 0 0 0 1 62 
0 0 0 0 0 0 5 51 52 53 54 56 
1 0 0 4 0 0 3 58 57 55 
8 0 0 10 0 0 2 58 55 
3 0 0 3 0 0 2 60 57 
1 0 0 10 0 0 2 60 57 
7 0 0 5 0 0 2 60 59 
10 0 0 9 0 0 2 60 59 
7 0 0 10 0 0 1 59 
5 0 0 7 0 0 2 59 91 
7 0 0 10 0 0 1 61 
1 0 0 7 0 0 1 61 
0 0 0 0 0 0 1 62 
0 0 0 0 0 0 5 63 75 87 99 111 
0 0 0 0 0 0 5 64 65 66 69 73 
9 0 0 0 3 0 2 72 67 
10 0 0 0 9 0 3 71 68 81 
9 0 0 0 9 0 2 71 68 
7 0 0 0 6 0 2 71 70 
5 0 0 0 8 0 1 70 
2 0 0 0 6 0 1 70 
9 0 0 0 10 0 1 74 
3 0 0 0 7 0 1 74 
10 0 0 0 10 0 1 74 
6 0 0 0 7 0 1 74 
0 0 0 0 0 0 1 123 
0 0 0 0 0 0 4 76 77 78 79 
1 0 4 0 0 0 5 85 84 83 82 80 
1 0 7 0 0 0 3 83 82 81 
7 0 4 0 0 0 2 83 80 
7 0 9 0 0 0 2 84 82 
10 0 10 0 0 0 1 81 
8 0 6 0 0 0 1 86 
6 0 8 0 0 0 1 86 
7 0 8 0 0 0 1 86 
7 0 9 0 0 0 2 86 119 
6 0 10 0 0 0 1 86 
0 0 0 0 0 0 1 123 
0 0 0 0 0 0 6 88 89 90 91 92 94 
3 0 0 4 0 0 3 97 95 93 
7 0 0 10 0 0 3 97 95 93 
5 0 0 6 0 0 3 97 95 93 
3 0 0 10 0 0 3 97 95 93 
3 0 0 6 0 0 2 96 95 
2 0 0 6 0 0 1 96 
1 0 0 10 0 0 1 95 
10 0 0 8 0 0 2 98 154 
9 0 0 10 0 0 1 98 
5 0 0 5 0 0 1 98 
0 0 0 0 0 0 1 123 
0 0 0 0 0 0 4 100 101 102 105 
9 2 0 0 0 0 4 109 108 104 103 
9 8 0 0 0 0 4 108 107 104 202 
8 7 0 0 0 0 2 107 104 
5 8 0 0 0 0 2 107 106 
3 10 0 0 0 0 1 106 
7 6 0 0 0 0 1 106 
5 10 0 0 0 0 1 110 
1 8 0 0 0 0 1 110 
10 10 0 0 0 0 1 110 
8 6 0 0 0 0 1 110 
0 0 0 0 0 0 1 123 
0 0 0 0 0 0 5 112 113 119 120 121 
8 0 0 0 4 0 3 118 115 114 
8 0 0 0 4 0 2 117 115 
9 0 0 0 9 0 2 116 180 
5 0 0 0 10 0 1 122 
5 0 0 0 5 0 1 122 
2 0 0 0 10 0 1 122 
8 0 0 0 7 0 1 122 
10 0 0 0 9 0 1 122 
3 0 0 0 7 0 1 122 
2 0 0 0 10 0 1 122 
0 0 0 0 0 0 1 123 
0 0 0 0 0 0 5 124 136 148 160 172 
0 0 0 0 0 0 6 125 127 131 132 133 134 
5 0 0 0 0 7 3 130 128 126 
3 0 0 0 0 4 1 129 
1 0 0 0 0 5 1 128 
7 0 0 0 0 10 1 135 
4 0 0 0 0 5 2 135 162 
5 0 0 0 0 10 1 135 
5 0 0 0 0 5 1 135 
4 0 0 0 0 10 1 135 
10 0 0 0 0 10 1 135 
2 0 0 0 0 9 1 135 
0 0 0 0 0 0 1 184 
0 0 0 0 0 0 5 137 138 139 140 142 
10 1 0 0 0 0 4 146 145 144 141 
4 6 0 0 0 0 3 145 144 141 
9 6 0 0 0 0 2 146 143 
2 10 0 0 0 0 2 145 143 
5 9 0 0 0 0 1 143 
5 6 0 0 0 0 1 144 
7 10 0 0 0 0 2 147 151 
6 9 0 0 0 0 1 147 
8 10 0 0 0 0 1 147 
8 8 0 0 0 0 1 147 
0 0 0 0 0 0 1 184 
0 0 0 0 0 0 7 149 150 151 152 156 157 158 
4 0 0 4 0 0 1 154 
8 0 0 7 0 0 1 154 
2 0 0 7 0 0 1 153 
1 0 0 8 0 0 1 153 
2 0 0 7 0 0 1 155 
10 0 0 9 0 0 1 155 
2 0 0 10 0 0 2 159 223 
10 0 0 8 0 0 1 159 
1 0 0 5 0 0 1 159 
5 0 0 10 0 0 1 159 
0 0 0 0 0 0 1 184 
0 0 0 0 0 0 4 161 162 169 170 
5 0 5 0 0 0 3 168 167 163 
7 0 7 0 0 0 1 163 
6 0 3 0 0 0 3 166 165 164 
2 0 9 0 0 0 1 171 
10 0 10 0 0 0 1 171 
9 0 10 0 0 0 1 171 
10 0 5 0 0 0 1 171 
7 0 9 0 0 0 1 171 
3 0 7 0 0 0 1 171 
8 0 10 0 0 0 1 171 
0 0 0 0 0 0 1 184 
0 0 0 0 0 0 5 173 174 175 178 182 
10 0 0 0 4 0 3 181 177 176 
8 0 0 0 9 0 2 181 176 
3 0 0 0 5 0 2 177 176 
7 0 0 0 9 0 2 180 179 
5 0 0 0 9 0 1 179 
5 0 0 0 6 0 1 179 
10 0 0 0 10 0 1 183 
10 0 0 0 8 0 1 183 
5 0 0 0 8 0 1 183 
8 0 0 0 7 0 1 183 
0 0 0 0 0 0 1 184 
0 0 0 0 0 0 4 185 197 209 221 
0 0 0 0 0 0 5 186 187 188 194 195 
2 0 0 0 0 2 3 193 190 189 
10 0 0 0 0 7 3 193 192 190 
4 0 0 0 0 8 2 192 190 
1 0 0 0 0 10 2 192 191 
4 0 0 0 0 10 1 191 
9 0 0 0 0 7 1 196 
8 0 0 0 0 10 1 196 
4 0 0 0 0 9 1 196 
3 0 0 0 0 7 1 196 
8 0 0 0 0 5 1 196 
0 0 0 0 0 0 1 233 
0 0 0 0 0 0 5 198 199 200 201 202 
3 0 0 0 0 5 2 207 203 
1 0 0 0 0 4 2 206 203 
7 0 0 0 0 9 2 204 203 
1 0 0 0 0 5 2 204 203 
6 0 0 0 0 9 2 206 205 
10 0 0 0 0 6 1 205 
4 0 0 0 0 10 1 205 
1 0 0 0 0 9 1 208 
10 0 0 0 0 10 1 208 
8 0 0 0 0 8 1 208 
0 0 0 0 0 0 1 233 
0 0 0 0 0 0 2 210 211 
4 0 0 0 0 5 3 214 213 212 
7 0 0 0 0 6 3 219 213 212 
7 0 0 0 0 4 4 218 217 216 215 
1 0 0 0 0 9 3 218 217 215 
2 0 0 0 0 7 3 219 216 215 
9 0 0 0 0 9 1 220 
9 0 0 0 0 10 1 220 
3 0 0 0 0 10 1 220 
1 0 0 0 0 10 1 220 
1 0 0 0 0 5 1 220 
0 0 0 0 0 0 1 233 
0 0 0 0 0 0 2 222 223 
9 0 0 1 0 0 3 226 225 224 
9 0 0 8 0 0 3 231 226 224 
3 0 0 7 0 0 4 230 229 228 227 
5 0 0 4 0 0 4 231 230 228 227 
10 0 0 10 0 0 3 229 228 227 
6 0 0 10 0 0 1 232 
6 0 0 7 0 0 1 232 
3 0 0 9 0 0 1 232 
5 0 0 9 0 0 1 232 
8 0 0 10 0 0 1 232 
0 0 0 0 0 0 1 233 
0 0 0 0 0 0 5 234 235 236 237 240 
4 0 0 0 0 1 3 243 239 238 
3 0 0 0 0 5 2 239 238 
5 0 0 0 0 10 2 243 241 
1 0 0 0 0 10 2 242 241 
8 0 0 0 0 10 1 242 
1 0 0 0 0 6 1 241 
5 0 0 0 0 9 1 241 
3 0 0 0 0 8 1 244 
8 0 0 0 0 9 1 244 
4 0 0 0 0 7 1 244 
0 0 0 0 0 0 0 
